20
68.0
0 19 3.24 3.32
1 18 2.06 3.22
2 17 8.32 7.09
3 16 3.12 3.22
4 15 3.17 3.27
5 14 2.0 3.18
6 13 3.42 3.42
7 12 7.0 6.25
8 11 3.05 3.18
9 10 3.1 3.25
10 9 3.39 3.39
11 8 2.25 3.38
12 7 8.36 7.07
13 6 3.17 3.17
14 5 3.3 3.3
15 4 2.25 3.38
16 3 4.5 4.0
17 2 8.5 7.0
18 1 2.5 2.5
